DIMENSION: 6
EDGE_WEIGHT_TYPE: EXPLICIT
EDGE_WEIGHT_FORMAT: FULL_MATRIX
EDGE_WEIGHT_SECTION:
32767 53 32767 54 32767 32767 
53 32767 58 38 69 32767 
32767 58 32767 32767 32767 49 
54 38 32767 32767 6 87 
32767 69 32767 6 32767 94 
32767 32767 49 87 94 32767 
EOF